Minimize
	value: tt

Subject to
tt + 1000 s_1_1 > 0.0
tt - t_1_1 - 1001.110473 s_1_1  + 0.555236 s_1_8  + 0.555236 s_1_7  > -992.192875
tt + 1000 s_2_1 > 0.0
tt - t_2_1 - 1000.943601 s_2_1  + 0.471800 s_2_8  + 0.471800 s_2_7  > -992.788844
tt + 1000 s_1_2 > 0.0
tt - t_1_2 - 1000.555236 s_1_2  + 0.555236 s_1_7  > -992.260478
tt + 1000 s_2_2 > 0.0
tt - t_2_2 - 1000.471800 s_2_2  + 0.471800 s_2_7  > -992.897658
tt + 1000 s_1_3 > 0.0
tt - t_1_3 - 1001.110473 s_1_3  + 0.555236 s_1_8  + 0.555236 s_1_7  > -999.515933
tt + 1000 s_2_3 > 0.0
tt - t_2_3 - 1000.943601 s_2_3  + 0.471800 s_2_8  + 0.471800 s_2_7  > -998.371333
tt + 1000 s_1_4 > 0.0
tt - t_1_4 - 1000.555236 s_1_4  + 0.555236 s_1_7  > -999.182100
tt + 1000 s_2_4 > 0.0
tt - t_2_4 - 1000.471800 s_2_4  + 0.471800 s_2_7  > -997.447264
tt + 1000 s_1_5 > 0.0
tt - t_1_5 - 1000.555236 s_1_5  + 0.555236 s_1_8  > -996.318000
tt + 1000 s_2_5 > 0.0
tt - t_2_5 - 1000.471800 s_2_5  + 0.471800 s_2_8  > -996.243500
tt + 1000 s_1_6 > 0.0
tt - t_1_6 - 1003.331418 s_1_6  + 0.555236 s_1_7  + 0.555236 s_1_5  + 0.555236 s_1_3  + 0.555236 s_1_2  + 0.555236 s_1_1  + 0.555236 s_1_4  > -999.693100
tt + 1000 s_2_6 > 0.0
tt - t_2_6 - 1002.830803 s_2_6  + 0.471800 s_2_7  + 0.471800 s_2_5  + 0.471800 s_2_3  + 0.471800 s_2_2  + 0.471800 s_2_1  + 0.471800 s_2_4  > -999.337875
tt + 1000 s_1_7 > 0.0
tt - t_1_7 - 1000.000000 s_1_7  > -988.107600
tt + 1000 s_2_7 > 0.0
tt - t_2_7 - 1000.000000 s_2_7  > -993.770667
tt + 1000 s_1_8 > 0.0
tt - t_1_8 - 1000.000000 s_1_8  > -988.373500
tt + 1000 s_2_8 > 0.0
tt - t_2_8 - 1000.000000 s_2_8  > -994.056556
s_1_1 + s_2_1 = 1
s_1_2 + s_2_2 = 1
s_1_3 + s_2_3 = 1
s_1_4 + s_2_4 = 1
s_1_5 + s_2_5 = 1
s_1_6 + s_2_6 = 1
s_1_7 + s_2_7 = 1
s_1_8 + s_2_8 = 1
s_1_1 + s_1_2 + 1000 r_1_1_2 >= 2
- s_1_1 - s_1_2 - 1000 r_1_1_2 >= -1001
t_1_1 - t_1_2 - 1000.000000 u_1_1_2 - 0.555236 s_1_2  + 0.555236 s_1_7  + 2000.000000 r_1_1_2 > -992.260478
s_2_1 + s_2_2 + 1000 r_2_1_2 >= 2
- s_2_1 - s_2_2 - 1000 r_2_1_2 >= -1001
t_2_1 - t_2_2 - 1000.000000 u_2_1_2 - 0.471800 s_2_2  + 0.471800 s_2_7  + 2000.000000 r_2_1_2 > -992.897658
s_1_1 + s_1_3 + 1000 r_1_1_3 >= 2
- s_1_1 - s_1_3 - 1000 r_1_1_3 >= -1001
t_1_1 - t_1_3 - 1000.000000 u_1_1_3 - 1.110473 s_1_3  + 0.555236 s_1_8  + 0.555236 s_1_7  + 2000.000000 r_1_1_3 > -999.515933
s_2_1 + s_2_3 + 1000 r_2_1_3 >= 2
- s_2_1 - s_2_3 - 1000 r_2_1_3 >= -1001
t_2_1 - t_2_3 - 1000.000000 u_2_1_3 - 0.943601 s_2_3  + 0.471800 s_2_8  + 0.471800 s_2_7  + 2000.000000 r_2_1_3 > -998.371333
s_1_1 + s_1_4 + 1000 r_1_1_4 >= 2
- s_1_1 - s_1_4 - 1000 r_1_1_4 >= -1001
t_1_1 - t_1_4 - 1000.000000 u_1_1_4 - 0.555236 s_1_4  + 0.555236 s_1_7  + 2000.000000 r_1_1_4 > -999.182100
s_2_1 + s_2_4 + 1000 r_2_1_4 >= 2
- s_2_1 - s_2_4 - 1000 r_2_1_4 >= -1001
t_2_1 - t_2_4 - 1000.000000 u_2_1_4 - 0.471800 s_2_4  + 0.471800 s_2_7  + 2000.000000 r_2_1_4 > -997.447264
s_1_1 + s_1_5 + 1000 r_1_1_5 >= 2
- s_1_1 - s_1_5 - 1000 r_1_1_5 >= -1001
t_1_1 - t_1_5 - 1000.000000 u_1_1_5 - 0.555236 s_1_5  + 0.555236 s_1_8  + 2000.000000 r_1_1_5 > -996.318000
s_2_1 + s_2_5 + 1000 r_2_1_5 >= 2
- s_2_1 - s_2_5 - 1000 r_2_1_5 >= -1001
t_2_1 - t_2_5 - 1000.000000 u_2_1_5 - 0.471800 s_2_5  + 0.471800 s_2_8  + 2000.000000 r_2_1_5 > -996.243500
t_1_6 - t_1_1 - 1001.110473 s_1_1  + 0.555236 s_1_8  + 0.555236 s_1_7  > -992.192875
t_1_6 - t_2_1 - 1000.943601 s_2_1  + 0.471800 s_2_8  + 0.471800 s_2_7  > -992.788844
t_2_6 - t_1_1 - 1001.110473 s_1_1  + 0.555236 s_1_8  + 0.555236 s_1_7  > -992.192875
t_2_6 - t_2_1 - 1000.943601 s_2_1  + 0.471800 s_2_8  + 0.471800 s_2_7  > -992.788844
t_1_1 - t_1_7 - 1000.000000 s_1_7  > -988.107600
t_1_1 - t_2_7 - 1000.000000 s_2_7  > -993.770667
t_2_1 - t_1_7 - 1000.000000 s_1_7  > -988.107600
t_2_1 - t_2_7 - 1000.000000 s_2_7  > -993.770667
t_1_1 - t_1_8 - 1000.000000 s_1_8  > -988.373500
t_1_1 - t_2_8 - 1000.000000 s_2_8  > -994.056556
t_2_1 - t_1_8 - 1000.000000 s_1_8  > -988.373500
t_2_1 - t_2_8 - 1000.000000 s_2_8  > -994.056556
s_1_2 + s_1_1 + 1000 r_1_1_2 >= 2
- s_1_2 - s_1_1 - 1000 r_1_1_2 >= -1001
t_1_2 - t_1_1 + 1000.000000 u_1_1_2 - 1.110473 s_1_1  + 0.555236 s_1_8  + 0.555236 s_1_7  + 2000.000000 r_1_1_2 > 7.807125
s_2_2 + s_2_1 + 1000 r_2_1_2 >= 2
- s_2_2 - s_2_1 - 1000 r_2_1_2 >= -1001
t_2_2 - t_2_1 + 1000.000000 u_2_1_2 - 0.943601 s_2_1  + 0.471800 s_2_8  + 0.471800 s_2_7  + 2000.000000 r_2_1_2 > 7.211156
s_1_2 + s_1_3 + 1000 r_1_2_3 >= 2
- s_1_2 - s_1_3 - 1000 r_1_2_3 >= -1001
t_1_2 - t_1_3 - 1000.000000 u_1_2_3 - 1.110473 s_1_3  + 0.555236 s_1_8  + 0.555236 s_1_7  + 2000.000000 r_1_2_3 > -999.515933
s_2_2 + s_2_3 + 1000 r_2_2_3 >= 2
- s_2_2 - s_2_3 - 1000 r_2_2_3 >= -1001
t_2_2 - t_2_3 - 1000.000000 u_2_2_3 - 0.943601 s_2_3  + 0.471800 s_2_8  + 0.471800 s_2_7  + 2000.000000 r_2_2_3 > -998.371333
s_1_2 + s_1_4 + 1000 r_1_2_4 >= 2
- s_1_2 - s_1_4 - 1000 r_1_2_4 >= -1001
t_1_2 - t_1_4 - 1000.000000 u_1_2_4 - 0.555236 s_1_4  + 0.555236 s_1_7  + 2000.000000 r_1_2_4 > -999.182100
s_2_2 + s_2_4 + 1000 r_2_2_4 >= 2
- s_2_2 - s_2_4 - 1000 r_2_2_4 >= -1001
t_2_2 - t_2_4 - 1000.000000 u_2_2_4 - 0.471800 s_2_4  + 0.471800 s_2_7  + 2000.000000 r_2_2_4 > -997.447264
s_1_2 + s_1_5 + 1000 r_1_2_5 >= 2
- s_1_2 - s_1_5 - 1000 r_1_2_5 >= -1001
t_1_2 - t_1_5 - 1000.000000 u_1_2_5 - 0.555236 s_1_5  + 0.555236 s_1_8  + 2000.000000 r_1_2_5 > -996.318000
s_2_2 + s_2_5 + 1000 r_2_2_5 >= 2
- s_2_2 - s_2_5 - 1000 r_2_2_5 >= -1001
t_2_2 - t_2_5 - 1000.000000 u_2_2_5 - 0.471800 s_2_5  + 0.471800 s_2_8  + 2000.000000 r_2_2_5 > -996.243500
t_1_6 - t_1_2 - 1000.555236 s_1_2  + 0.555236 s_1_7  > -992.260478
t_1_6 - t_2_2 - 1000.471800 s_2_2  + 0.471800 s_2_7  > -992.897658
t_2_6 - t_1_2 - 1000.555236 s_1_2  + 0.555236 s_1_7  > -992.260478
t_2_6 - t_2_2 - 1000.471800 s_2_2  + 0.471800 s_2_7  > -992.897658
t_1_2 - t_1_7 - 1000.000000 s_1_7  > -988.107600
t_1_2 - t_2_7 - 1000.000000 s_2_7  > -993.770667
t_2_2 - t_1_7 - 1000.000000 s_1_7  > -988.107600
t_2_2 - t_2_7 - 1000.000000 s_2_7  > -993.770667
s_1_2 + s_1_8 + 1000 r_1_2_8 >= 2
- s_1_2 - s_1_8 - 1000 r_1_2_8 >= -1001
t_1_2 - t_1_8 - 1000.000000 u_1_2_8 - 0.000000 s_1_8  + 2000.000000 r_1_2_8 > -988.373500
s_2_2 + s_2_8 + 1000 r_2_2_8 >= 2
- s_2_2 - s_2_8 - 1000 r_2_2_8 >= -1001
t_2_2 - t_2_8 - 1000.000000 u_2_2_8 - 0.000000 s_2_8  + 2000.000000 r_2_2_8 > -994.056556
s_1_3 + s_1_1 + 1000 r_1_1_3 >= 2
- s_1_3 - s_1_1 - 1000 r_1_1_3 >= -1001
t_1_3 - t_1_1 + 1000.000000 u_1_1_3 - 1.110473 s_1_1  + 0.555236 s_1_8  + 0.555236 s_1_7  + 2000.000000 r_1_1_3 > 7.807125
s_2_3 + s_2_1 + 1000 r_2_1_3 >= 2
- s_2_3 - s_2_1 - 1000 r_2_1_3 >= -1001
t_2_3 - t_2_1 + 1000.000000 u_2_1_3 - 0.943601 s_2_1  + 0.471800 s_2_8  + 0.471800 s_2_7  + 2000.000000 r_2_1_3 > 7.211156
s_1_3 + s_1_2 + 1000 r_1_2_3 >= 2
- s_1_3 - s_1_2 - 1000 r_1_2_3 >= -1001
t_1_3 - t_1_2 + 1000.000000 u_1_2_3 - 0.555236 s_1_2  + 0.555236 s_1_7  + 2000.000000 r_1_2_3 > 7.739522
s_2_3 + s_2_2 + 1000 r_2_2_3 >= 2
- s_2_3 - s_2_2 - 1000 r_2_2_3 >= -1001
t_2_3 - t_2_2 + 1000.000000 u_2_2_3 - 0.471800 s_2_2  + 0.471800 s_2_7  + 2000.000000 r_2_2_3 > 7.102342
s_1_3 + s_1_4 + 1000 r_1_3_4 >= 2
- s_1_3 - s_1_4 - 1000 r_1_3_4 >= -1001
t_1_3 - t_1_4 - 1000.000000 u_1_3_4 - 0.555236 s_1_4  + 0.555236 s_1_7  + 2000.000000 r_1_3_4 > -999.182100
s_2_3 + s_2_4 + 1000 r_2_3_4 >= 2
- s_2_3 - s_2_4 - 1000 r_2_3_4 >= -1001
t_2_3 - t_2_4 - 1000.000000 u_2_3_4 - 0.471800 s_2_4  + 0.471800 s_2_7  + 2000.000000 r_2_3_4 > -997.447264
s_1_3 + s_1_5 + 1000 r_1_3_5 >= 2
- s_1_3 - s_1_5 - 1000 r_1_3_5 >= -1001
t_1_3 - t_1_5 - 1000.000000 u_1_3_5 - 0.555236 s_1_5  + 0.555236 s_1_8  + 2000.000000 r_1_3_5 > -996.318000
s_2_3 + s_2_5 + 1000 r_2_3_5 >= 2
- s_2_3 - s_2_5 - 1000 r_2_3_5 >= -1001
t_2_3 - t_2_5 - 1000.000000 u_2_3_5 - 0.471800 s_2_5  + 0.471800 s_2_8  + 2000.000000 r_2_3_5 > -996.243500
t_1_6 - t_1_3 - 1001.110473 s_1_3  + 0.555236 s_1_8  + 0.555236 s_1_7  > -999.515933
t_1_6 - t_2_3 - 1000.943601 s_2_3  + 0.471800 s_2_8  + 0.471800 s_2_7  > -998.371333
t_2_6 - t_1_3 - 1001.110473 s_1_3  + 0.555236 s_1_8  + 0.555236 s_1_7  > -999.515933
t_2_6 - t_2_3 - 1000.943601 s_2_3  + 0.471800 s_2_8  + 0.471800 s_2_7  > -998.371333
t_1_3 - t_1_7 - 1000.000000 s_1_7  > -988.107600
t_1_3 - t_2_7 - 1000.000000 s_2_7  > -993.770667
t_2_3 - t_1_7 - 1000.000000 s_1_7  > -988.107600
t_2_3 - t_2_7 - 1000.000000 s_2_7  > -993.770667
t_1_3 - t_1_8 - 1000.000000 s_1_8  > -988.373500
t_1_3 - t_2_8 - 1000.000000 s_2_8  > -994.056556
t_2_3 - t_1_8 - 1000.000000 s_1_8  > -988.373500
t_2_3 - t_2_8 - 1000.000000 s_2_8  > -994.056556
s_1_4 + s_1_1 + 1000 r_1_1_4 >= 2
- s_1_4 - s_1_1 - 1000 r_1_1_4 >= -1001
t_1_4 - t_1_1 + 1000.000000 u_1_1_4 - 1.110473 s_1_1  + 0.555236 s_1_8  + 0.555236 s_1_7  + 2000.000000 r_1_1_4 > 7.807125
s_2_4 + s_2_1 + 1000 r_2_1_4 >= 2
- s_2_4 - s_2_1 - 1000 r_2_1_4 >= -1001
t_2_4 - t_2_1 + 1000.000000 u_2_1_4 - 0.943601 s_2_1  + 0.471800 s_2_8  + 0.471800 s_2_7  + 2000.000000 r_2_1_4 > 7.211156
s_1_4 + s_1_2 + 1000 r_1_2_4 >= 2
- s_1_4 - s_1_2 - 1000 r_1_2_4 >= -1001
t_1_4 - t_1_2 + 1000.000000 u_1_2_4 - 0.555236 s_1_2  + 0.555236 s_1_7  + 2000.000000 r_1_2_4 > 7.739522
s_2_4 + s_2_2 + 1000 r_2_2_4 >= 2
- s_2_4 - s_2_2 - 1000 r_2_2_4 >= -1001
t_2_4 - t_2_2 + 1000.000000 u_2_2_4 - 0.471800 s_2_2  + 0.471800 s_2_7  + 2000.000000 r_2_2_4 > 7.102342
s_1_4 + s_1_3 + 1000 r_1_3_4 >= 2
- s_1_4 - s_1_3 - 1000 r_1_3_4 >= -1001
t_1_4 - t_1_3 + 1000.000000 u_1_3_4 - 1.110473 s_1_3  + 0.555236 s_1_8  + 0.555236 s_1_7  + 2000.000000 r_1_3_4 > 0.484067
s_2_4 + s_2_3 + 1000 r_2_3_4 >= 2
- s_2_4 - s_2_3 - 1000 r_2_3_4 >= -1001
t_2_4 - t_2_3 + 1000.000000 u_2_3_4 - 0.943601 s_2_3  + 0.471800 s_2_8  + 0.471800 s_2_7  + 2000.000000 r_2_3_4 > 1.628667
s_1_4 + s_1_5 + 1000 r_1_4_5 >= 2
- s_1_4 - s_1_5 - 1000 r_1_4_5 >= -1001
t_1_4 - t_1_5 - 1000.000000 u_1_4_5 - 0.555236 s_1_5  + 0.555236 s_1_8  + 2000.000000 r_1_4_5 > -996.318000
s_2_4 + s_2_5 + 1000 r_2_4_5 >= 2
- s_2_4 - s_2_5 - 1000 r_2_4_5 >= -1001
t_2_4 - t_2_5 - 1000.000000 u_2_4_5 - 0.471800 s_2_5  + 0.471800 s_2_8  + 2000.000000 r_2_4_5 > -996.243500
t_1_6 - t_1_4 - 1000.555236 s_1_4  + 0.555236 s_1_7  > -999.182100
t_1_6 - t_2_4 - 1000.471800 s_2_4  + 0.471800 s_2_7  > -997.447264
t_2_6 - t_1_4 - 1000.555236 s_1_4  + 0.555236 s_1_7  > -999.182100
t_2_6 - t_2_4 - 1000.471800 s_2_4  + 0.471800 s_2_7  > -997.447264
t_1_4 - t_1_7 - 1000.000000 s_1_7  > -988.107600
t_1_4 - t_2_7 - 1000.000000 s_2_7  > -993.770667
t_2_4 - t_1_7 - 1000.000000 s_1_7  > -988.107600
t_2_4 - t_2_7 - 1000.000000 s_2_7  > -993.770667
s_1_4 + s_1_8 + 1000 r_1_4_8 >= 2
- s_1_4 - s_1_8 - 1000 r_1_4_8 >= -1001
t_1_4 - t_1_8 - 1000.000000 u_1_4_8 - 0.000000 s_1_8  + 2000.000000 r_1_4_8 > -988.373500
s_2_4 + s_2_8 + 1000 r_2_4_8 >= 2
- s_2_4 - s_2_8 - 1000 r_2_4_8 >= -1001
t_2_4 - t_2_8 - 1000.000000 u_2_4_8 - 0.000000 s_2_8  + 2000.000000 r_2_4_8 > -994.056556
s_1_5 + s_1_1 + 1000 r_1_1_5 >= 2
- s_1_5 - s_1_1 - 1000 r_1_1_5 >= -1001
t_1_5 - t_1_1 + 1000.000000 u_1_1_5 - 1.110473 s_1_1  + 0.555236 s_1_8  + 0.555236 s_1_7  + 2000.000000 r_1_1_5 > 7.807125
s_2_5 + s_2_1 + 1000 r_2_1_5 >= 2
- s_2_5 - s_2_1 - 1000 r_2_1_5 >= -1001
t_2_5 - t_2_1 + 1000.000000 u_2_1_5 - 0.943601 s_2_1  + 0.471800 s_2_8  + 0.471800 s_2_7  + 2000.000000 r_2_1_5 > 7.211156
s_1_5 + s_1_2 + 1000 r_1_2_5 >= 2
- s_1_5 - s_1_2 - 1000 r_1_2_5 >= -1001
t_1_5 - t_1_2 + 1000.000000 u_1_2_5 - 0.555236 s_1_2  + 0.555236 s_1_7  + 2000.000000 r_1_2_5 > 7.739522
s_2_5 + s_2_2 + 1000 r_2_2_5 >= 2
- s_2_5 - s_2_2 - 1000 r_2_2_5 >= -1001
t_2_5 - t_2_2 + 1000.000000 u_2_2_5 - 0.471800 s_2_2  + 0.471800 s_2_7  + 2000.000000 r_2_2_5 > 7.102342
s_1_5 + s_1_3 + 1000 r_1_3_5 >= 2
- s_1_5 - s_1_3 - 1000 r_1_3_5 >= -1001
t_1_5 - t_1_3 + 1000.000000 u_1_3_5 - 1.110473 s_1_3  + 0.555236 s_1_8  + 0.555236 s_1_7  + 2000.000000 r_1_3_5 > 0.484067
s_2_5 + s_2_3 + 1000 r_2_3_5 >= 2
- s_2_5 - s_2_3 - 1000 r_2_3_5 >= -1001
t_2_5 - t_2_3 + 1000.000000 u_2_3_5 - 0.943601 s_2_3  + 0.471800 s_2_8  + 0.471800 s_2_7  + 2000.000000 r_2_3_5 > 1.628667
s_1_5 + s_1_4 + 1000 r_1_4_5 >= 2
- s_1_5 - s_1_4 - 1000 r_1_4_5 >= -1001
t_1_5 - t_1_4 + 1000.000000 u_1_4_5 - 0.555236 s_1_4  + 0.555236 s_1_7  + 2000.000000 r_1_4_5 > 0.817900
s_2_5 + s_2_4 + 1000 r_2_4_5 >= 2
- s_2_5 - s_2_4 - 1000 r_2_4_5 >= -1001
t_2_5 - t_2_4 + 1000.000000 u_2_4_5 - 0.471800 s_2_4  + 0.471800 s_2_7  + 2000.000000 r_2_4_5 > 2.552736
t_1_6 - t_1_5 - 1000.555236 s_1_5  + 0.555236 s_1_8  > -996.318000
t_1_6 - t_2_5 - 1000.471800 s_2_5  + 0.471800 s_2_8  > -996.243500
t_2_6 - t_1_5 - 1000.555236 s_1_5  + 0.555236 s_1_8  > -996.318000
t_2_6 - t_2_5 - 1000.471800 s_2_5  + 0.471800 s_2_8  > -996.243500
s_1_5 + s_1_7 + 1000 r_1_5_7 >= 2
- s_1_5 - s_1_7 - 1000 r_1_5_7 >= -1001
t_1_5 - t_1_7 - 1000.000000 u_1_5_7 - 0.000000 s_1_7  + 2000.000000 r_1_5_7 > -988.107600
s_2_5 + s_2_7 + 1000 r_2_5_7 >= 2
- s_2_5 - s_2_7 - 1000 r_2_5_7 >= -1001
t_2_5 - t_2_7 - 1000.000000 u_2_5_7 - 0.000000 s_2_7  + 2000.000000 r_2_5_7 > -993.770667
t_1_5 - t_1_8 - 1000.000000 s_1_8  > -988.373500
t_1_5 - t_2_8 - 1000.000000 s_2_8  > -994.056556
t_2_5 - t_1_8 - 1000.000000 s_1_8  > -988.373500
t_2_5 - t_2_8 - 1000.000000 s_2_8  > -994.056556
t_1_6 - t_1_7 - 1000.000000 s_1_7  > -988.107600
t_1_6 - t_2_7 - 1000.000000 s_2_7  > -993.770667
t_2_6 - t_1_7 - 1000.000000 s_1_7  > -988.107600
t_2_6 - t_2_7 - 1000.000000 s_2_7  > -993.770667
s_1_7 + s_1_5 + 1000 r_1_5_7 >= 2
- s_1_7 - s_1_5 - 1000 r_1_5_7 >= -1001
t_1_7 - t_1_5 + 1000.000000 u_1_5_7 - 0.555236 s_1_5  + 0.555236 s_1_8  + 2000.000000 r_1_5_7 > 3.682000
s_2_7 + s_2_5 + 1000 r_2_5_7 >= 2
- s_2_7 - s_2_5 - 1000 r_2_5_7 >= -1001
t_2_7 - t_2_5 + 1000.000000 u_2_5_7 - 0.471800 s_2_5  + 0.471800 s_2_8  + 2000.000000 r_2_5_7 > 3.756500
s_1_7 + s_1_8 + 1000 r_1_7_8 >= 2
- s_1_7 - s_1_8 - 1000 r_1_7_8 >= -1001
t_1_7 - t_1_8 - 1000.000000 u_1_7_8 - 0.000000 s_1_8  + 2000.000000 r_1_7_8 > -988.373500
s_2_7 + s_2_8 + 1000 r_2_7_8 >= 2
- s_2_7 - s_2_8 - 1000 r_2_7_8 >= -1001
t_2_7 - t_2_8 - 1000.000000 u_2_7_8 - 0.000000 s_2_8  + 2000.000000 r_2_7_8 > -994.056556
s_1_8 + s_1_2 + 1000 r_1_2_8 >= 2
- s_1_8 - s_1_2 - 1000 r_1_2_8 >= -1001
t_1_8 - t_1_2 + 1000.000000 u_1_2_8 - 0.555236 s_1_2  + 0.555236 s_1_7  + 2000.000000 r_1_2_8 > 7.739522
s_2_8 + s_2_2 + 1000 r_2_2_8 >= 2
- s_2_8 - s_2_2 - 1000 r_2_2_8 >= -1001
t_2_8 - t_2_2 + 1000.000000 u_2_2_8 - 0.471800 s_2_2  + 0.471800 s_2_7  + 2000.000000 r_2_2_8 > 7.102342
s_1_8 + s_1_4 + 1000 r_1_4_8 >= 2
- s_1_8 - s_1_4 - 1000 r_1_4_8 >= -1001
t_1_8 - t_1_4 + 1000.000000 u_1_4_8 - 0.555236 s_1_4  + 0.555236 s_1_7  + 2000.000000 r_1_4_8 > 0.817900
s_2_8 + s_2_4 + 1000 r_2_4_8 >= 2
- s_2_8 - s_2_4 - 1000 r_2_4_8 >= -1001
t_2_8 - t_2_4 + 1000.000000 u_2_4_8 - 0.471800 s_2_4  + 0.471800 s_2_7  + 2000.000000 r_2_4_8 > 2.552736
s_1_8 + s_1_7 + 1000 r_1_7_8 >= 2
- s_1_8 - s_1_7 - 1000 r_1_7_8 >= -1001
t_1_8 - t_1_7 + 1000.000000 u_1_7_8 - 0.000000 s_1_7  + 2000.000000 r_1_7_8 > 11.892400
s_2_8 + s_2_7 + 1000 r_2_7_8 >= 2
- s_2_8 - s_2_7 - 1000 r_2_7_8 >= -1001
t_2_8 - t_2_7 + 1000.000000 u_2_7_8 - 0.000000 s_2_7  + 2000.000000 r_2_7_8 > 6.229333
Binary
s_1_1
s_2_1
s_1_2
s_2_2
s_1_3
s_2_3
s_1_4
s_2_4
s_1_5
s_2_5
s_1_6
s_2_6
s_1_7
s_2_7
s_1_8
s_2_8
u_1_1_2
r_1_1_2
u_2_1_2
r_2_1_2
u_1_1_3
r_1_1_3
u_2_1_3
r_2_1_3
u_1_1_4
r_1_1_4
u_2_1_4
r_2_1_4
u_1_1_5
r_1_1_5
u_2_1_5
r_2_1_5
u_1_2_3
r_1_2_3
u_2_2_3
r_2_2_3
u_1_2_4
r_1_2_4
u_2_2_4
r_2_2_4
u_1_2_5
r_1_2_5
u_2_2_5
r_2_2_5
u_1_2_8
r_1_2_8
u_2_2_8
r_2_2_8
u_1_3_4
r_1_3_4
u_2_3_4
r_2_3_4
u_1_3_5
r_1_3_5
u_2_3_5
r_2_3_5
u_1_4_5
r_1_4_5
u_2_4_5
r_2_4_5
u_1_4_8
r_1_4_8
u_2_4_8
r_2_4_8
u_1_5_7
r_1_5_7
u_2_5_7
r_2_5_7
u_1_7_8
r_1_7_8
u_2_7_8
r_2_7_8

End
